language Essence 1.3

letting bot_end be [196, 18, 75, 810, 52, 837, 35, 840, 850, 28, 61, 53; int(1..12)]
letting bot_start be [810, 756, 712, 194, 771, 157, 692, 259, 253, 647, 699, 676; int(1..12)]
letting buffer_col be 2
letting buffer_row be 2
letting corridor_size be 1
letting n_shelves_col be 2
letting n_shelves_row be 41
letting shelf_col_size be 2
letting shelf_row_size be 1
